
Gurobi 9.5.0 (linux64) logging started Fri Sep 29 16:31:30 2023

Set parameter LogFile to value "/vsc-hard-mounts/leuven-data/348/vsc34888/JointResearch/05.Models/06.Benchmarking/A.The_full_year_MILP/9n/openStarNet_9n.log"
Set parameter Method to value 2
Set parameter MIPFocus to value 1
Set parameter Presolve to value 2
Set parameter RINS to value 100
Set parameter MIPGap to value 0.01
Set parameter Threads to value 36
Set parameter TimeLimit to value 604800
Set parameter IterationLimit to value 760000000
Gurobi Optimizer version 9.5.0 build v9.5.0rc5 (linux64)
Thread count: 36 physical cores, 36 logical processors, using up to 36 threads
Optimize a model with 8229315 rows, 2843911 columns and 27693754 nonzeros
Model fingerprint: 0x3892ec94
Variable types: 2843875 continuous, 36 integer (36 binary)
Coefficient statistics:
  Matrix range     [4e-04, 2e+02]
  Objective range  [1e+00, 1e+00]
  Bounds range     [4e-04, 2e+00]
  RHS range        [4e-04, 2e+00]
Presolve removed 550384 rows and 209694 columns (presolve time = 5s) ...
Presolve removed 1389040 rows and 209694 columns (presolve time = 10s) ...
Presolve removed 1808368 rows and 323249 columns (presolve time = 16s) ...
Presolve removed 1808368 rows and 323249 columns (presolve time = 21s) ...
Presolve removed 2026755 rows and 541636 columns (presolve time = 25s) ...
Presolve removed 2026755 rows and 541636 columns (presolve time = 30s) ...
Presolve removed 2026755 rows and 541636 columns (presolve time = 35s) ...
Presolve removed 2026755 rows and 541636 columns (presolve time = 42s) ...
Presolve removed 2026755 rows and 541636 columns (presolve time = 45s) ...
Presolve removed 2026755 rows and 541636 columns (presolve time = 50s) ...
Presolve removed 2026755 rows and 541636 columns (presolve time = 55s) ...
Presolve removed 2026755 rows and 541636 columns (presolve time = 61s) ...
Presolve removed 2026755 rows and 541636 columns (presolve time = 65s) ...
Presolve removed 2026755 rows and 541636 columns (presolve time = 70s) ...
Presolve removed 2026755 rows and 541636 columns (presolve time = 79s) ...
Presolve removed 2026755 rows and 541636 columns (presolve time = 80s) ...
Presolve removed 2026755 rows and 541636 columns (presolve time = 86s) ...
Presolve removed 2026755 rows and 541636 columns
Presolve time: 87.74s
Presolved: 6202560 rows, 2302275 columns, 22377567 nonzeros
Variable types: 2302239 continuous, 36 integer (36 binary)
Root relaxation presolve removed 0 rows and 0 columns (presolve time = 5s) ...
Root relaxation presolve removed 0 rows and 0 columns (presolve time = 10s) ...
Root relaxation presolve removed 0 rows and 0 columns (presolve time = 15s) ...
Root relaxation presolve removed 0 rows and 0 columns (presolve time = 24s) ...
Root relaxation presolved: 6202560 rows, 2302275 columns, 22377567 nonzeros

Root barrier log...

Ordering time: 3.11s

Barrier statistics:
 Dense cols : 36
 AA' NZ     : 1.211e+08
 Factor NZ  : 2.282e+08 (roughly 5.0 GB of memory)
 Factor Ops : 1.540e+10 (less than 1 second per iteration)
 Threads    : 35

                  Objective                Residual
Iter       Primal          Dual         Primal    Dual     Compl     Time
   0   1.10264910e+06 -1.71112897e+08  2.58e+01 1.27e+00  4.89e+01   172s
   1   2.38704872e+05 -5.08553423e+07  3.00e+00 1.54e-01  6.97e+00   175s
   2   8.82514580e+04 -6.41884049e+06  1.37e-01 5.39e-08  6.60e-01   178s
   3   2.44743440e+04 -1.14664800e+06  1.51e-02 4.70e-09  1.15e-01   183s
   4   3.66822918e+03 -4.57157902e+04  2.00e-05 1.05e-10  4.81e-03   186s
   5   2.90835790e+03 -1.57058923e+04  1.12e-05 3.29e-11  1.81e-03   189s
   6   1.98001031e+03 -4.34697747e+03  5.06e-06 1.02e-11  6.16e-04   191s
   7   1.17195330e+03 -1.09281800e+03  1.85e-06 2.79e-12  2.21e-04   194s
   8   6.71167048e+02 -1.31161326e+02  3.97e-07 2.31e-12  7.82e-05   197s
   9   4.49701717e+02  3.15789912e+02  3.69e-08 2.25e-12  1.30e-05   202s
  10   4.37814282e+02  3.72034786e+02  2.85e-08 1.76e-12  6.41e-06   206s
  11   4.36738046e+02  3.75876173e+02  2.77e-08 8.60e-13  5.93e-06   208s
  12   4.12455314e+02  3.79659444e+02  8.63e-09 1.12e-12  3.19e-06   211s
  13   4.11538410e+02  3.86281640e+02  8.05e-09 8.24e-13  2.46e-06   214s
  14   4.10711242e+02  3.88099043e+02  7.49e-09 1.49e-12  2.20e-06   217s
  15   4.05368850e+02  3.90510506e+02  3.67e-09 9.56e-13  1.45e-06   221s
  16   4.04483986e+02  3.91626628e+02  3.03e-09 1.10e-12  1.25e-06   226s
  17   4.03861868e+02  3.92457103e+02  2.59e-09 1.47e-12  1.11e-06   231s
  18   4.03695649e+02  3.92790185e+02  2.47e-09 1.82e-12  1.06e-06   235s
  19   4.03005954e+02  3.93547686e+02  1.96e-09 1.38e-12  9.21e-07   239s
  20   4.02439165e+02  3.94241006e+02  1.55e-09 1.59e-12  7.99e-07   245s
  21   4.02004185e+02  3.94706058e+02  1.26e-09 1.58e-12  7.11e-07   251s
  22   4.01726227e+02  3.95237873e+02  1.06e-09 9.17e-13  6.32e-07   256s
  23   4.01633953e+02  3.95433724e+02  9.97e-10 2.20e-12  6.04e-07   260s
  24   4.01534615e+02  3.95690072e+02  9.16e-10 1.53e-12  5.69e-07   266s
  25   4.01213199e+02  3.96233947e+02  9.35e-10 2.64e-12  4.85e-07   272s
  26   4.00909216e+02  3.96416442e+02  6.15e-10 2.18e-12  4.38e-07   278s
  27   4.00781412e+02  3.96906500e+02  4.93e-10 8.74e-13  3.77e-07   285s
  28   4.00627470e+02  3.97031298e+02  4.21e-10 2.07e-12  3.50e-07   292s
  29   4.00595927e+02  3.97186938e+02  3.83e-10 2.87e-12  3.32e-07   302s
  30   4.00446895e+02  3.97443930e+02  2.13e-10 1.39e-12  2.93e-07   321s
  31   4.00419749e+02  3.97713577e+02  1.98e-09 1.78e-12  2.64e-07   340s
  32   4.00396045e+02  3.97953948e+02  4.99e-09 9.31e-13  2.38e-07   360s
  33   4.00378018e+02  3.98041779e+02  8.24e-09 1.67e-12  2.28e-07   372s
  34   4.00342440e+02  3.98423930e+02  1.15e-08 6.08e-13  1.87e-07   391s
  35   4.00317822e+02  3.98515153e+02  1.03e-08 9.20e-13  1.76e-07   411s
  36   4.00311381e+02  3.98618568e+02  9.48e-09 8.88e-13  1.65e-07   428s
  37   4.00294163e+02  3.98872326e+02  1.04e-08 9.98e-13  1.39e-07   443s
  38   4.00282016e+02  3.99078258e+02  1.17e-08 9.59e-13  1.17e-07   463s
  39   4.00269088e+02  3.99219591e+02  1.05e-08 5.40e-13  1.02e-07   482s
  40   4.00259171e+02  3.99342622e+02  7.47e-09 1.01e-12  8.93e-08   500s
  41   4.00253592e+02  3.99450770e+02  5.30e-09 5.76e-13  7.82e-08   516s
  42   4.00250985e+02  3.99533128e+02  5.03e-09 7.03e-13  6.99e-08   535s
  43   4.00248836e+02  3.99573349e+02  1.40e-08 5.97e-13  6.58e-08   554s
  44   4.00250141e+02  3.99637427e+02  9.07e-09 3.16e-13  5.97e-08   566s
  45   4.00247939e+02  3.99937371e+02  7.00e-09 1.13e-12  3.03e-08   582s
  46   4.00248512e+02  3.99955364e+02  2.04e-08 1.74e-12  2.86e-08   592s
  47   4.00247471e+02  4.00187398e+02  7.23e-09 4.16e-13  5.85e-09   603s
  48   4.00242398e+02  4.00200813e+02  7.71e-09 1.13e-12  4.05e-09   614s
  49   4.00241368e+02  4.00226444e+02  2.44e-09 5.40e-13  1.45e-09   622s
  50   4.00241087e+02  4.00235297e+02  2.59e-09 4.33e-13  5.64e-10   629s
  51   4.00240974e+02  4.00239676e+02  2.76e-10 1.77e-11  1.26e-10   633s
  52   4.00240962e+02  4.00240909e+02  3.00e-10 1.34e-12  5.11e-12   637s
  53   4.00240959e+02  4.00240914e+02  3.94e-08 1.56e-12  4.41e-12   642s
  54   4.00240959e+02  4.00240916e+02  4.18e-08 6.08e-13  4.17e-12   646s
  55   4.00240958e+02  4.00240918e+02  4.34e-08 6.15e-13  3.95e-12   650s
  56   4.00240952e+02  4.00240942e+02  2.50e-07 3.94e-11  1.04e-12   654s
  57   4.00240952e+02  4.00240942e+02  2.46e-07 3.39e-11  9.67e-13   658s
  58   4.00240952e+02  4.00240943e+02  2.43e-07 3.39e-11  9.50e-13   662s
  59   4.00240952e+02  4.00240943e+02  2.38e-07 3.25e-11  9.21e-13   666s

Barrier solved model in 59 iterations and 666.35 seconds (556.42 work units)
Optimal objective 4.00240952e+02


Root crossover log...

  923569 DPushes remaining with DInf 0.0000000e+00               671s
     178 DPushes remaining with DInf 0.0000000e+00               676s
       0 DPushes remaining with DInf 0.0000000e+00               677s

  652116 PPushes remaining with PInf 0.0000000e+00               677s
  275983 PPushes remaining with PInf 0.0000000e+00               681s
  128497 PPushes remaining with PInf 0.0000000e+00               685s
   69033 PPushes remaining with PInf 0.0000000e+00               691s
   48472 PPushes remaining with PInf 0.0000000e+00               695s
   31559 PPushes remaining with PInf 0.0000000e+00               701s
   18347 PPushes remaining with PInf 0.0000000e+00               706s
    9750 PPushes remaining with PInf 0.0000000e+00               712s
    4413 PPushes remaining with PInf 0.0000000e+00               718s
    1655 PPushes remaining with PInf 0.0000000e+00               723s
     508 PPushes remaining with PInf 0.0000000e+00               729s
       0 PPushes remaining with PInf 0.0000000e+00               737s

  Push phase complete: Pinf 0.0000000e+00, Dinf 2.4993924e-11    738s


Root simplex log...

Iteration    Objective       Primal Inf.    Dual Inf.      Time
  939526    4.0024095e+02   0.000000e+00   0.000000e+00    768s
  939526    4.0024095e+02   0.000000e+00   0.000000e+00    804s

Root relaxation: objective 4.002409e+02, 939526 iterations, 677.56 seconds (579.91 work units)

    Nodes    |    Current Node    |     Objective Bounds      |     Work
 Expl Unexpl |  Obj  Depth IntInf | Incumbent    BestBd   Gap | It/Node Time

     0     0  400.24095    0    6          -  400.24095      -     -  808s
H    0     0                    1513.0781027  400.24095  73.5%     -  887s
     0     0  408.33985    0    1 1513.07810  408.33985  73.0%     - 3918s
H    0     0                     409.9898918  408.33985  0.40%     - 4112s

Cutting planes:
  MIR: 9640
  RLT: 936
  Relax-and-lift: 15009

Explored 1 nodes (1044795 simplex iterations) in 4112.99 seconds (3476.89 work units)
Thread count was 36 (of 36 available processors)

Solution count 2: 409.99 1513.08 

Optimal solution found (tolerance 1.00e-02)
Warning: max constraint violation (2.1225e-06) exceeds tolerance
Best objective 4.099898917803e+02, best bound 4.083398528592e+02, gap 0.4025%

Gurobi 9.5.0 (linux64) logging started Fri Sep 29 17:43:56 2023

Set parameter LogFile to value "/vsc-hard-mounts/leuven-data/348/vsc34888/JointResearch/05.Models/06.Benchmarking/A.The_full_year_MILP/9n/openStarNet_9n.log"
Set parameter Method to value 2
Set parameter MIPFocus to value 1
Set parameter Presolve to value 2
Set parameter RINS to value 100
Set parameter MIPGap to value 0.01
Set parameter Threads to value 36
Set parameter TimeLimit to value 604800
Set parameter IterationLimit to value 760000000
No parameters matching 'relax_integrality' found
Gurobi Optimizer version 9.5.0 build v9.5.0rc5 (linux64)
Thread count: 36 physical cores, 36 logical processors, using up to 36 threads
Optimize a model with 8229315 rows, 2843875 columns and 22661782 nonzeros
Model fingerprint: 0x16989134
Coefficient statistics:
  Matrix range     [4e-04, 2e+02]
  Objective range  [1e+00, 1e+00]
  Bounds range     [4e-04, 2e+00]
  RHS range        [4e-04, 1e+01]
Presolve removed 6043735 rows and 1530000 columns (presolve time = 6s) ...
Presolve removed 6315733 rows and 1801998 columns (presolve time = 12s) ...
Presolve removed 6321285 rows and 1833758 columns (presolve time = 15s) ...
Presolve removed 6755309 rows and 1848454 columns
Presolve time: 19.28s
Presolved: 1474006 rows, 1414749 columns, 5315179 nonzeros

Ordering time: 0.70s

Barrier statistics:
 AA' NZ     : 1.426e+07
 Factor NZ  : 2.673e+07 (roughly 1.4 GB of memory)
 Factor Ops : 5.571e+08 (less than 1 second per iteration)
 Threads    : 36

                  Objective                Residual
Iter       Primal          Dual         Primal    Dual     Compl     Time
   0   1.03869184e+06 -2.54855899e+07  5.05e+00 1.98e+01  4.89e+01    22s
   1   1.27000108e+05 -1.39195695e+07  3.72e-01 1.58e-02  6.48e+00    23s
   2   4.84639736e+04 -1.69651753e+06  2.53e-02 6.99e-04  6.13e-01    23s
   3   1.12632683e+04 -1.71715439e+05  2.47e-03 4.39e-05  6.10e-02    24s
   4   1.45138068e+03 -1.92406174e+04  8.15e-06 4.00e-06  6.83e-03    25s
   5   1.01182922e+03 -6.30829446e+03  1.22e-07 1.35e-06  2.42e-03    25s
   6   7.69244511e+02 -1.82506480e+03  4.87e-08 4.17e-07  8.57e-04    25s
   7   5.61761967e+02 -2.55594076e+02  1.89e-08 1.10e-07  2.70e-04    26s
   8   4.41584551e+02  2.58890334e+02  3.50e-09 2.03e-08  6.03e-05    26s
   9   4.21466813e+02  3.70521022e+02  1.24e-09 4.98e-09  1.68e-05    27s
  10   4.13275091e+02  4.08528306e+02  3.45e-10 1.00e-10  1.57e-06    27s
  11   4.10381889e+02  4.09921734e+02  4.02e-11 9.24e-13  1.52e-07    28s
  12   4.10044271e+02  4.09980892e+02  8.26e-10 2.13e-14  2.09e-08    29s
  13   4.09996418e+02  4.09987076e+02  8.30e-10 1.42e-14  3.08e-09    29s
  14   4.09995034e+02  4.09987704e+02  7.55e-09 1.42e-14  2.42e-09    30s
  15   4.09991227e+02  4.09989800e+02  2.23e-09 1.42e-14  4.71e-10    30s
  16   4.09989899e+02  4.09989891e+02  1.73e-09 1.42e-14  2.62e-12    31s
  17   4.09989892e+02  4.09989892e+02  8.92e-11 1.07e-14  2.62e-15    32s

Barrier solved model in 17 iterations and 31.79 seconds (28.11 work units)
Optimal objective 4.09989892e+02

Crossover log...

  155886 DPushes remaining with DInf 0.0000000e+00                36s
       0 DPushes remaining with DInf 0.0000000e+00                39s

  209880 PPushes remaining with PInf 0.0000000e+00                40s
  129504 PPushes remaining with PInf 0.0000000e+00                41s
   65647 PPushes remaining with PInf 0.0000000e+00                48s
   51124 PPushes remaining with PInf 0.0000000e+00                51s
   37014 PPushes remaining with PInf 0.0000000e+00                55s
   14218 PPushes remaining with PInf 0.0000000e+00                65s
    8883 PPushes remaining with PInf 0.0000000e+00                70s
    5529 PPushes remaining with PInf 0.0000000e+00                75s
    2605 PPushes remaining with PInf 0.0000000e+00                85s
    1569 PPushes remaining with PInf 0.0000000e+00                90s
       0 PPushes remaining with PInf 0.0000000e+00                94s

  Push phase complete: Pinf 0.0000000e+00, Dinf 2.9185849e-12     94s

Iteration    Objective       Primal Inf.    Dual Inf.      Time
  298576    4.0998989e+02   0.000000e+00   7.862500e-02    160s

Solved in 298576 iterations and 160.69 seconds (162.05 work units)
Optimal objective  4.099898919e+02
